NAME : tsp_208_sol.txt
COMMENT : OR-Tools Guided Local Search
TYPE : TOUR
DIMENSION : 50
COST : 6001
STATUS : ROUTING_SUCCESS
GAP : 0.00% (Reference Solution)
TOUR_SECTION
1
17
19
38
26
9
44
49
5
11
28
48
4
8
47
7
46
29
10
13
23
41
21
34
37
2
18
43
6
33
12
31
32
24
14
27
39
16
25
30
45
50
3
20
36
40
15
22
42
35
-1
